p tw 62 1861 33 
1 38 
1 43 
1 48 
1 53 
1 58 
2 34 
2 39 
2 44 
2 49 
2 54 
2 58 
3 35 
3 40 
3 45 
3 50 
3 55 
3 58 
4 36 
4 41 
4 46 
4 51 
4 56 
4 58 
5 37 
5 42 
5 47 
5 52 
5 57 
5 58 
6 33 
6 41 
6 47 
6 49 
6 55 
6 59 
7 34 
7 38 
7 46 
7 50 
7 57 
7 59 
8 35 
8 39 
8 43 
8 52 
8 56 
8 59 
9 36 
9 42 
9 45 
9 48 
9 54 
9 59 
10 37 
10 40 
10 44 
10 51 
10 53 
10 59 
11 33 
11 42 
11 44 
11 50 
11 56 
11 60 
12 34 
12 41 
12 45 
12 52 
12 53 
12 60 
13 35 
13 38 
13 47 
13 51 
13 54 
13 60 
14 36 
14 40 
14 43 
14 49 
14 57 
14 60 
15 37 
15 39 
15 46 
15 48 
15 55 
15 60 
16 33 
16 39 
16 45 
16 51 
16 57 
16 61 
17 34 
17 40 
17 47 
17 48 
17 56 
17 61 
18 35 
18 42 
18 46 
18 49 
18 53 
18 61 
19 36 
19 38 
19 44 
19 52 
19 55 
19 61 
20 37 
20 41 
20 43 
20 50 
20 54 
20 61 
21 33 
21 40 
21 46 
21 52 
21 54 
21 62 
22 34 
22 42 
22 43 
22 51 
22 55 
22 62 
23 35 
23 41 
23 44 
23 48 
23 57 
23 62 
24 36 
24 39 
24 47 
24 50 
24 53 
24 62 
25 37 
25 38 
25 45 
25 49 
25 56 
25 62 
26 32 
26 33 
26 34 
26 35 
26 36 
26 37 
27 32 
27 38 
27 39 
27 40 
27 41 
27 42 
28 32 
28 43 
28 44 
28 45 
28 46 
28 47 
29 32 
29 48 
29 49 
29 50 
29 51 
29 52 
30 32 
30 53 
30 54 
30 55 
30 56 
30 57 
31 32 
31 58 
31 59 
31 60 
31 61 
31 62 
